Minimize
  0 C0 + 0 C1 + 0 C2 + 0 C3 + 0 C4 + 0 C5 + 0 C6 + 0 C7 + 0 C8 + 0 C9
   + 0 C10 + 0 C11 + 0 C12 + 0 C13 + 0 tau_0 + 0 tau_1 + 0 tau_2 + 0 tau_3
   + 0 tau_4 + 0 tau_5 + 0 tau_6 + 0 q_dd_0 + 0 q_dd_1 + 0 q_dd_2
   + 0 q_dd_3 + 0 q_dd_4 + 0 q_dd_5 + 0 q_dd_6
Subject To
Bounds
 -200 <= tau_0 <= 200
 -200 <= tau_1 <= 200
 -100 <= tau_2 <= 100
 -100 <= tau_3 <= 100
 -100 <= tau_4 <= 100
 -30 <= tau_5 <= 30
 -30 <= tau_6 <= 30
 -2950 <= q_dd_0 <= 2950
 21.88909471896139 <= q_dd_1 <= 4121.889094718961
 -2950 <= q_dd_2 <= 2950
 76.80445128061875 <= q_dd_3 <= 4176.804451280619
 -2950 <= q_dd_4 <= 2950
 -2050 <= q_dd_5 <= 2050
 -2950 <= q_dd_6 <= 2950
End
